p cnf 91 218
-1 19 79 -2 28 30 31 75 91 0 
-3 -4 91 0 
-5 17 18 21 37 38 39 91 0 
-6 91 0 
-7 91 0 
-4 91 0 
-4 -8 49 -9 42 -10 91 0 
-10 91 0 
-11 91 0 
-3 91 0 
-12 91 0 
-13 91 0 
-14 91 0 
-9 42 -10 91 0 
-15 -10 91 0 
-16 41 53 54 57 59 60 62 63 64 65 66 68 69 70 71 77 78 80 81 82 83 86 87 88 89 91 0 
-17 5 18 21 37 38 39 91 0 
-18 5 17 21 37 38 39 91 0 
-19 1 79 91 0 
-20 85 91 0 
-21 5 17 18 37 38 39 91 0 
-4 -10 91 0 
-22 -10 91 0 
-23 -10 91 0 
-24 -10 91 0 
-25 84 -10 91 0 
-22 -25 84 -26 91 0 
-22 -8 49 -9 42 91 0 
-2 28 30 31 75 91 0 
-27 -10 91 0 
-22 -28 2 30 31 75 91 0 
-29 -30 2 28 31 75 91 0 
-22 -29 -31 2 28 30 75 91 0 
-19 1 79 -10 91 0 
-32 -10 91 0 
-7 -10 91 0 
-33 -10 91 0 
-34 91 0 
-35 91 0 
-36 91 0 
-37 5 17 18 21 38 39 91 0 
-38 5 17 18 21 37 39 91 0 
-39 5 17 18 21 37 38 91 0 
-40 91 0 
-41 16 53 54 57 59 60 62 63 64 65 66 68 69 70 71 77 78 80 81 82 83 86 87 88 89 91 0 
-42 9 91 0 
-43 91 0 
-44 -10 91 0 
-45 -10 91 0 
-24 -46 91 0 
-25 84 -46 91 0 
-22 -25 84 -26 91 0 
-46 91 0 
-22 -28 2 30 31 75 91 0 
-14 -10 91 0 
-4 -46 91 0 
-7 -46 91 0 
-4 -8 49 -9 42 91 0 
-47 -10 91 0 
-4 -46 -10 91 0 
-48 91 0 
-49 8 -9 42 91 0 
-3 -10 91 0 
-50 91 0 
-11 -46 -10 91 0 
-44 -14 -10 91 0 
-27 -46 -9 42 91 0 
-51 -8 49 -9 42 91 0 
-44 -46 -10 91 0 
-52 91 0 
-53 16 41 54 57 59 60 62 63 64 65 66 68 69 70 71 77 78 80 81 82 83 86 87 88 89 -10 91 0 
-54 16 41 53 57 59 60 62 63 64 65 66 68 69 70 71 77 78 80 81 82 83 86 87 88 89 -10 91 0 
-55 -10 91 0 
-56 -10 91 0 
-57 16 41 53 54 59 60 62 63 64 65 66 68 69 70 71 77 78 80 81 82 83 86 87 88 89 91 0 
-58 67 91 0 
-59 16 41 53 54 57 60 62 63 64 65 66 68 69 70 71 77 78 80 81 82 83 86 87 88 89 91 0 
-60 16 41 53 54 57 59 62 63 64 65 66 68 69 70 71 77 78 80 81 82 83 86 87 88 89 91 0 
-61 91 0 
-62 16 41 53 54 57 59 60 63 64 65 66 68 69 70 71 77 78 80 81 82 83 86 87 88 89 91 0 
-63 16 41 53 54 57 59 60 62 64 65 66 68 69 70 71 77 78 80 81 82 83 86 87 88 89 91 0 
-64 16 41 53 54 57 59 60 62 63 65 66 68 69 70 71 77 78 80 81 82 83 86 87 88 89 91 0 
-65 16 41 53 54 57 59 60 62 63 64 66 68 69 70 71 77 78 80 81 82 83 86 87 88 89 91 0 
-66 16 41 53 54 57 59 60 62 63 64 65 68 69 70 71 77 78 80 81 82 83 86 87 88 89 91 0 
-67 58 91 0 
-68 16 41 53 54 57 59 60 62 63 64 65 66 69 70 71 77 78 80 81 82 83 86 87 88 89 91 0 
-69 16 41 53 54 57 59 60 62 63 64 65 66 68 70 71 77 78 80 81 82 83 86 87 88 89 91 0 
-70 16 41 53 54 57 59 60 62 63 64 65 66 68 69 71 77 78 80 81 82 83 86 87 88 89 91 0 
-71 16 41 53 54 57 59 60 62 63 64 65 66 68 69 70 77 78 80 81 82 83 86 87 88 89 91 0 
-22 91 0 
-72 91 0 
-33 91 0 
-55 91 0 
-73 91 0 
-74 -37 5 17 18 21 38 39 -75 2 28 30 31 91 0 
-5 17 18 21 37 38 39 -11 91 0 
-76 91 0 
-7 -46 -10 91 0 
-40 91 0 
-53 16 41 54 57 59 60 62 63 64 65 66 68 69 70 71 77 78 80 81 82 83 86 87 88 89 91 0 
-77 16 41 53 54 57 59 60 62 63 64 65 66 68 69 70 71 78 80 81 82 83 86 87 88 89 91 0 
-56 91 0 
-78 16 41 53 54 57 59 60 62 63 64 65 66 68 69 70 71 77 80 81 82 83 86 87 88 89 91 0 
-54 16 41 53 57 59 60 62 63 64 65 66 68 69 70 71 77 78 80 81 82 83 86 87 88 89 91 0 
-79 1 19 91 0 
-80 16 41 53 54 57 59 60 62 63 64 65 66 68 69 70 71 77 78 81 82 83 86 87 88 89 91 0 
-81 16 41 53 54 57 59 60 62 63 64 65 66 68 69 70 71 77 78 80 82 83 86 87 88 89 91 0 
-82 16 41 53 54 57 59 60 62 63 64 65 66 68 69 70 71 77 78 80 81 83 86 87 88 89 91 0 
-1 19 79 -41 16 53 54 57 59 60 62 63 64 65 66 68 69 70 71 77 78 80 81 82 83 86 87 88 89 -4 -10 91 0 
-83 16 41 53 54 57 59 60 62 63 64 65 66 68 69 70 71 77 78 80 81 82 86 87 88 89 -23 91 0 
-84 25 -10 91 0 
-84 25 91 0 
-22 -46 91 0 
-23 -46 91 0 
-2 28 30 31 75 91 0 
-29 -30 2 28 31 75 91 0 
-22 -29 -31 2 28 30 75 91 0 
-19 1 79 -46 91 0 
-32 -46 91 0 
-33 -46 91 0 
-85 20 91 0 
-86 16 41 53 54 57 59 60 62 63 64 65 66 68 69 70 71 77 78 80 81 82 83 87 88 89 91 0 
-87 16 41 53 54 57 59 60 62 63 64 65 66 68 69 70 71 77 78 80 81 82 83 86 88 89 91 0 
-88 16 41 53 54 57 59 60 62 63 64 65 66 68 69 70 71 77 78 80 81 82 83 86 87 89 91 0 
-89 16 41 53 54 57 59 60 62 63 64 65 66 68 69 70 71 77 78 80 81 82 83 86 87 88 91 0 
-34 -10 91 0 
-90 -10 91 0 
30 47 -91 0 
-3 11 -15 0 
9 21 -77 0 
-1 -81 90 0 
-7 33 -66 0 
51 60 67 0 
-19 19 -63 0 
20 37 -49 0 
9 59 66 0 
13 -38 61 0 
-35 63 -70 0 
-44 -44 66 0 
-39 -46 -56 0 
3 -12 48 0 
-32 39 -68 0 
28 -43 87 0 
22 -42 -63 0 
9 20 -75 0 
-3 10 50 0 
-17 48 72 0 
14 50 -59 0 
53 -54 90 0 
-7 -17 28 0 
-17 -49 -58 0 
-15 -37 -54 0 
-1 15 -64 0 
20 -49 -90 0 
18 35 -50 0 
-41 74 74 0 
3 -35 89 0 
-13 -74 91 0 
20 -41 -41 0 
-11 -58 89 0 
-36 -66 -87 0 
-33 74 89 0 
8 24 -76 0 
27 58 -69 0 
-11 22 -53 0 
-13 16 -24 0 
-7 -10 -81 0 
4 -22 -72 0 
-3 -31 -89 0 
-10 12 33 0 
51 -69 75 0 
-9 36 -59 0 
42 59 -79 0 
-2 -8 -41 0 
-15 -63 -69 0 
8 14 -70 0 
24 47 -52 0 
-3 14 32 0 
-77 80 89 0 
20 -54 79 0 
-44 -50 -74 0 
51 60 83 0 
-26 -63 -68 0 
-44 -64 73 0 
-23 73 -74 0 
-23 -55 71 0 
-37 66 -69 0 
-1 -57 71 0 
10 -25 -73 0 
7 29 85 0 
30 45 -70 0 
29 -58 91 0 
-39 43 -50 0 
22 77 86 0 
-39 -59 78 0 
57 -58 61 0 
52 -64 84 0 
14 18 77 0 
-22 -73 -88 0 
-27 30 64 0 
7 56 -67 0 
30 59 -74 0 
44 46 59 0 
43 -82 89 0 
11 11 79 0 
29 -32 -37 0 
64 -66 75 0 
4 -50 56 0 
22 -24 30 0 
-14 -71 -90 0 
12 -82 -88 0 
-18 23 79 0 
-11 29 35 0 
5 -42 78 0 
6 -25 -72 0 
42 -46 61 0 
19 -21 37 0 
-13 -20 -57 0 
